
Gurobi 11.0.2 (linux64) logging started Tue 03 Dec 2024 09:00:51 AM CET

Set parameter LogFile to value "./res/knapPI_11_20_1000/knapPI_11_20_1000_16/grb_dom.log"
Set parameter Presolve to value 0
Set parameter Aggregate to value 0
Set parameter Heuristics to value 0
Set parameter LPWarmStart to value 0
Set parameter NLPHeur to value 0
Set parameter PreDepRow to value 0
Set parameter PreDual to value 0
Set parameter RINS to value 0
Set parameter Symmetry to value 0
Set parameter NodeLimit to value 1
Set parameter Threads to value 1

Gurobi 11.0.2 (linux64) logging started Tue 03 Dec 2024 09:00:51 AM CET

Set parameter LogFile to value "./res/knapPI_11_20_1000/knapPI_11_20_1000_16/grb_dom.log"
Set parameter NLPHeur to value 0
Set parameter LPWarmStart to value 0
Set parameter PreDepRow to value 0
Set parameter Symmetry to value 0
Set parameter Presolve to value 0
Gurobi Optimizer version 11.0.2 build v11.0.2rc0 (linux64 - "Pop!_OS 20.04 LTS")

CPU model: Intel(R) Core(TM) i7-8650U CPU @ 1.90GHz, instruction set [SSE2|AVX|AVX2]
Thread count: 4 physical cores, 4 logical processors, using up to 1 threads

Optimize a model with 1573 rows, 20 columns and 25338 nonzeros
Model fingerprint: 0xf90e02b1
Variable types: 0 continuous, 20 integer (20 binary)
Coefficient statistics:
  Matrix range     [1e+00, 2e+03]
  Objective range  [1e+02, 1e+03]
  Bounds range     [0e+00, 0e+00]
  RHS range        [3e+03, 3e+03]
Variable types: 0 continuous, 20 integer (20 binary)

Root relaxation: objective 2.369007e+03, 1 iterations, 0.00 seconds (0.00 work units)

    Nodes    |    Current Node    |     Objective Bounds      |     Work
 Expl Unexpl |  Obj  Depth IntInf | Incumbent    BestBd   Gap | It/Node Time

     0     0 2369.00662    0    1          - 2369.00662      -     -    0s
     0     0 2369.00662    0    1          - 2369.00662      -     -    0s
     0     0 2369.00662    0    1          - 2369.00662      -     -    0s
     0     0 2331.97761    0    2          - 2331.97761      -     -    0s
     0     0 2295.53846    0    4          - 2295.53846      -     -    0s
     0     0 2295.43750    0    6          - 2295.43750      -     -    0s
     0     0 2280.15584    0    4          - 2280.15584      -     -    0s
     0     0 2257.62162    0    6          - 2257.62162      -     -    0s
     0     0 2257.62162    0    7          - 2257.62162      -     -    0s
     0     0 2257.41667    0    7          - 2257.41667      -     -    0s
*    0     0               0    2244.0000000 2244.00000  0.00%     -    0s

Cutting planes:
  Cover: 2
  MIR: 5
  StrongCG: 5
  Mod-K: 1

Explored 1 nodes (33 simplex iterations) in 0.35 seconds (0.18 work units)
Thread count was 1 (of 4 available processors)

Solution count 1: 2244 

Optimal solution found (tolerance 1.00e-04)
Best objective 2.244000000000e+03, best bound 2.244000000000e+03, gap 0.0000%

User-callback calls 310, time in user-callback 0.00 sec
opt = true
obj = 2244.0
nb_dom_cuts = 1572
solved_time = 0.346
opt_val = 2244.0
